
Gurobi 9.1.2 (linux64) logging started Sun Mar  6 22:18:22 2022

Changed value of parameter LogFile to ls_crank_sym-int-v0-s=20.log
   Prev:   Default: 
Changed value of parameter MIPFocus to 1
   Prev: 0  Min: 0  Max: 3  Default: 0
Changed value of parameter Threads to 4
   Prev: 0  Min: 0  Max: 1024  Default: 0
Warning: variable name "X[(1, 0),(0, 0)]" has a space
Warning: constraint name "flow-constr-t0-v(0, 7)" has a space
Warning: to let Gurobi read it back, use rlp format
Gurobi Optimizer version 9.1.2 build v9.1.2rc0 (linux64)
Thread count: 16 physical cores, 32 logical processors, using up to 4 threads
Optimize a model with 6073 rows, 5440 columns and 20830 nonzeros
Model fingerprint: 0xa14c49d0
Variable types: 640 continuous, 4800 integer (4800 binary)
Coefficient statistics:
  Matrix range     [1e+00, 3e+04]
  Objective range  [1e-01, 1e-01]
  Bounds range     [1e+00, 2e+04]
  RHS range        [1e+00, 3e+04]
Presolve removed 258 rows and 260 columns
Presolve time: 0.10s
Presolved: 5815 rows, 5180 columns, 37120 nonzeros
Variable types: 630 continuous, 4550 integer (4550 binary)

Root relaxation: objective 6.300000e+01, 169 iterations, 0.01 seconds

    Nodes    |    Current Node    |     Objective Bounds      |     Work
 Expl Unexpl |  Obj  Depth IntInf | Incumbent    BestBd   Gap | It/Node Time

     0     0   63.00000    0   61          -   63.00000      -     -    0s
     0     0   63.00000    0   86          -   63.00000      -     -    0s
     0     0   63.00000    0  107          -   63.00000      -     -    0s
H    0     0                    2614.5999999   63.00000  97.6%     -    0s
     0     0   63.00000    0   44 2614.60000   63.00000  97.6%     -    0s
H    0     0                    2604.9999999   63.00000  97.6%     -    0s
     0     0   63.00000    0   46 2605.00000   63.00000  97.6%     -    0s
     0     0   63.00000    0   52 2605.00000   63.00000  97.6%     -    0s
H    0     0                     408.1000000   63.00000  84.6%     -    1s
H    0     0                     298.1375000   63.00000  78.9%     -    1s
H    0     0                     286.0375000   63.00000  78.0%     -    1s
     0     0   63.00000    0   65  286.03750   63.00000  78.0%     -    1s
H    0     0                     258.5800000   63.00000  75.6%     -    1s
H    0     0                     234.3125000   63.00000  73.1%     -    1s
     0     0   63.00000    0   50  234.31250   63.00000  73.1%     -    1s
H    0     0                     217.5862745   63.00000  71.0%     -    1s
     0     0   63.00000    0   52  217.58627   63.00000  71.0%     -    1s
     0     0   63.00000    0   52  217.58627   63.00000  71.0%     -    2s
H    0     0                     217.2313725   63.00000  71.0%     -    2s
H    0     0                     209.0500000   63.00000  69.9%     -    2s
     0     2   63.00000    0   52  209.05000   63.00000  69.9%     -    2s
H    1     4                     201.6000000   63.00000  68.7%   690    2s
H   31    36                     187.1050000   63.00000  66.3%  27.1    3s
H   31    36                     179.3000000   63.00000  64.9%  27.1    3s
H   34    36                     176.5000000   63.00000  64.3%  25.0    3s
H   60   109                     175.9000000   63.00000  64.2%  15.2    4s
H   61   109                     175.2000000   63.00000  64.0%  15.0    4s
H   77   109                     170.0000000   63.00000  62.9%  12.4    4s
   110   304   63.00000   27   55  170.00000   63.00000  62.9%   9.5    5s
H  134   304                     169.6000000   63.00000  62.9%   8.7    5s
H  136   304                     169.4000000   63.00000  62.8%   8.7    5s
H  242   304                     166.9000000   63.00000  62.3%   6.7    5s
H  295   304                     166.0000000   63.00000  62.0%   6.0    5s
H  319   636                     165.7000000   63.00000  62.0%   5.8    6s
H  322   636                     163.5111111   63.00000  61.5%   5.8    6s
H  394   636                     161.3000000   63.00000  60.9%   5.4    6s
H  642  1169                     156.1277778   63.00000  59.6%   4.5    7s
H 1212  1169                     148.7321429   63.00000  57.6%   4.6    8s
H 1215  1169                     136.5739130   63.00000  53.9%   4.6    8s
H 1241  1271                     136.3434783   63.00000  53.8%   6.2    8s
H 1242  1271                     132.4916667   63.00000  52.4%   6.2    8s
H 1348  1496                     132.3916667   63.00000  52.4%   6.2    9s
H 1350  1496                     132.2416667   63.00000  52.4%   6.2    9s
H 1383  1496                     132.1416667   63.00000  52.3%   6.1    9s
H 1385  1496                     132.0693182   63.00000  52.3%   6.1    9s
H 1435  1496                     131.3045455   63.00000  52.0%   6.1    9s
H 1487  1496                     130.4750000   63.00000  51.7%   6.2    9s
H 1551  1867                     126.0625000   63.00000  50.0%   6.1   10s
H 1600  1867                     125.9000000   63.00000  50.0%   6.0   10s
H 1601  1867                     125.2300000   63.00000  49.7%   6.0   10s
H 1800  1867                     122.2583333   63.00000  48.5%   5.9   10s
H 1942  1986                     121.9000000   63.00000  48.3%   5.8   11s
H 1942  1984                     120.3888889   63.00000  47.7%   5.8   11s
H 2080  1982                     120.1000000   63.00000  47.5%   5.8   11s
H 2081  1983                     112.4750000   63.00000  44.0%   5.8   12s
H 2100  2066                     112.1400000   63.00000  43.8%   5.7   14s
H 2110  2066                     112.0500000   63.00000  43.8%   5.7   14s
H 2136  2066                     108.3750000   63.00000  41.9%   5.7   14s
H 2188  2066                     108.1100000   63.00000  41.7%   5.7   14s
H 2189  2470                     107.7500000   63.00000  41.5%   5.7   15s
H 2200  2470                     107.6500000   63.00000  41.5%   5.7   15s
H 2618  2908                     107.5500000   63.00000  41.4%   6.6   16s
H 3092  2908                     107.3000000   63.00000  41.3%   6.5   16s
H 3093  2908                     107.2000000   63.00000  41.2%   6.5   16s
H 3096  2764                     107.1958333   63.00000  41.2%   6.5   17s
H 3098  2628                     107.1458333   63.00000  41.2%   6.5   18s

Cutting planes:
  Learned: 1
  Gomory: 3
  Cover: 44
  Implied bound: 70
  Clique: 25
  MIR: 32
  Flow cover: 21
  RLT: 1
  Relax-and-lift: 8

Explored 3098 nodes (44661 simplex iterations) in 18.17 seconds
Thread count was 4 (of 32 available processors)

Solution count 10: 107.146 107.196 107.2 ... 112.05

Solve interrupted
Best objective 1.071458333333e+02, best bound 6.300000000000e+01, gap 41.2016%
